
Gurobi 8.1.1 (linux64) logging started Mon May 11 19:19:24 2020

Academic license - for non-commercial use only

Gurobi Optimizer version 8.1.1 build v8.1.1rc0 (linux64)
Copyright (c) 2019, Gurobi Optimization, LLC

Read LP format model from file teste_clique_37.lp
Reading time = 0.05 seconds
OBJROW: 130 rows, 64 columns, 299 nonzeros
Optimize a model with 130 rows, 64 columns and 299 nonzeros
Coefficient statistics:
  Matrix range     [2e-02, 4e+01]
  Objective range  [1e+00, 1e+00]
  Bounds range     [1e+00, 4e+02]
  RHS range        [1e+00, 4e+01]
Presolve removed 63 rows and 27 columns
Presolve time: 0.04s
Presolved: 67 rows, 37 columns, 209 nonzeros

Iteration    Objective       Primal Inf.    Dual Inf.      Time
       0    1.8000000e+01   1.017892e+01   0.000000e+00      0s
      20    1.9116057e+01   0.000000e+00   0.000000e+00      0s

Solved in 20 iterations and 0.07 seconds
Optimal objective  1.911605698e+01

Gurobi 8.1.1 (linux64) logging started Mon May 11 19:19:50 2020

Academic license - for non-commercial use only

Gurobi Optimizer version 8.1.1 build v8.1.1rc0 (linux64)
Copyright (c) 2019, Gurobi Optimization, LLC

Read LP format model from file teste_clique_37.lp
Reading time = 0.00 seconds
OBJROW: 131 rows, 64 columns, 304 nonzeros
Optimize a model with 131 rows, 64 columns and 304 nonzeros
Coefficient statistics:
  Matrix range     [7e-03, 4e+01]
  Objective range  [1e+00, 1e+00]
  Bounds range     [1e+00, 4e+02]
  RHS range        [1e+00, 4e+01]
Presolve removed 63 rows and 27 columns
Presolve time: 0.00s
Presolved: 68 rows, 37 columns, 214 nonzeros

Iteration    Objective       Primal Inf.    Dual Inf.      Time
       0    1.8000000e+01   1.074406e+01   0.000000e+00      0s
      21    1.9116057e+01   0.000000e+00   0.000000e+00      0s

Solved in 21 iterations and 0.00 seconds
Optimal objective  1.911605698e+01

Gurobi 8.1.1 (linux64) logging started Mon May 11 19:20:18 2020

Academic license - for non-commercial use only

Gurobi Optimizer version 8.1.1 build v8.1.1rc0 (linux64)
Copyright (c) 2019, Gurobi Optimization, LLC

Read LP format model from file teste_clique_37.lp
Reading time = 0.01 seconds
OBJROW: 130 rows, 64 columns, 299 nonzeros
Optimize a model with 130 rows, 64 columns and 299 nonzeros
Coefficient statistics:
  Matrix range     [2e-02, 4e+01]
  Objective range  [1e+00, 1e+00]
  Bounds range     [1e+00, 4e+02]
  RHS range        [1e+00, 4e+01]
Presolve removed 63 rows and 27 columns
Presolve time: 0.00s
Presolved: 67 rows, 37 columns, 209 nonzeros

Iteration    Objective       Primal Inf.    Dual Inf.      Time
       0    1.8000000e+01   1.017892e+01   0.000000e+00      0s
      20    1.9116057e+01   0.000000e+00   0.000000e+00      0s

Solved in 20 iterations and 0.01 seconds
Optimal objective  1.911605698e+01
